% File represents an instance of a Composite Structure problem to be solved by a CP framework
% Created on 2025-03-26 10:42:14.485
T = 50;
n = 36;
m = 60;
edges = [(1, 2),
(7, 8),
(13, 14),
(19, 20),
(26, 25),
(32, 31),
(2, 3),
(8, 9),
(14, 15),
(20, 21),
(26, 27),
(32, 33),
(3, 4),
(9, 10),
(15, 16),
(22, 21),
(28, 27),
(34, 33),
(4, 5),
(10, 11),
(16, 17),
(22, 23),
(29, 28),
(34, 35),
(6, 5),
(12, 11),
(18, 17),
(24, 23),
(30, 29),
(36, 35),
(7, 1),
(7, 13),
(13, 19),
(19, 25),
(31, 25),
(8, 2),
(8, 14),
(14, 20),
(26, 20),
(32, 26),
(9, 3),
(9, 15),
(15, 21),
(27, 21),
(33, 27),
(10, 4),
(10, 16),
(22, 16),
(28, 22),
(34, 28),
(11, 5),
(11, 17),
(23, 17),
(29, 23),
(35, 29),
(12, 6),
(12, 18),
(24, 18),
(30, 24),
(36, 30)];
counts = [|12, 14, 12, 8,
|10, 14, 10, 8,
|10, 10, 10, 6,
|10, 8, 10, 2,
|10, 2, 10, 2,
|10, 4, 10, 2,
|12, 14, 12, 12,
|10, 14, 10, 10,
|10, 12, 10, 6,
|10, 10, 10, 4,
|10, 8, 10, 2,
|10, 8, 10, 4,
|12, 12, 12, 8,
|10, 12, 10, 6,
|10, 8, 10, 4,
|10, 8, 10, 2,
|10, 4, 10, 2,
|10, 6, 10, 2,
|10, 10, 10, 8,
|10, 6, 10, 6,
|10, 4, 10, 2,
|10, 10, 10, 2,
|10, 8, 10, 2,
|10, 10, 10, 2,
|10, 8, 10, 4,
|10, 10, 10, 6,
|10, 10, 10, 2,
|10, 12, 10, 2,
|10, 12, 10, 4,
|10, 14, 10, 4,
|10, 10, 10, 4,
|10, 14, 10, 6,
|10, 10, 10, 4,
|10, 12, 10, 8,
|10, 12, 10, 6,
|10, 18, 10, 6|];
